155 147 28 68 66 80 180 172 10 100 
158 27 5 114 118 159 47 82 32 60 112 121 
145 115 8 98 6 189 200 59 185 113 
157 199 186 193 129 125 164 138 88 13 174 83 198 152 
87 153 54 12 99 142 194 183 90 149 150 130 
4 41 36 81 76 39 22 96 70 72 56 141 65 
73 14 3 49 131 117 25 79 156 50 139 122 161 146 
46 15 21 165 31 170 148 119 197 
55 7 67 135 89 191 33 167 45 24 108 
140 30 2 128 163 104 62 84 173 23 43 77 127 
63 44 11 137 38 53 192 1 187 110 
106 85 133 64 109 103 101 111 97 105 
132 188 71 166 124 134 9 37 107 
168 26 143 176 160 29 74 75 
120 51 123 48 162 171 169 102 
18 94 58 19 178 177 52 
196 92 16 136 179 61 
184 34 95 144 190 
57 195 182 154 91 
93 175 17 40 
35 151 116 42 
20 69 181 78 
86 126 

